Minimize
  - 11 y_0 - 31 y_1 - 33 y_2 - 20 y_3 - 36 y_4 - 19 y_5 - 30 y_7 - 34 y_8
   - 35 y_9 - 34 y_10 - 26 y_11 - 36 y_12 - 36 y_13 - 11 y_14 - 12 y_15
   - 40 y_16 - 16 y_17 - 27 y_18 - 29 y_19 + 88 x_0_2 + 94 x_0_4 + 36 x_0_5
   + 22 x_0_6 + 74 x_0_7 + 86 x_0_8 + 85 x_0_9 + 89 x_0_10 + 68 x_0_11
   + 90 x_0_12 + 88 x_0_13 + 8 x_0_14 + 26 x_0_15 + 32 x_0_17 + 59 x_0_18
   + 65 x_1_3 + 59 x_1_4 + 63 x_1_6 + 26 x_1_7 + 18 x_1_9 + 59 x_1_10
   + 77 x_1_11 + 10 x_1_12 + 76 x_1_14 + 84 x_1_15 + 91 x_1_17 + 54 x_1_18
   + 52 x_1_19 + 31 x_2_4 + 54 x_2_7 + 47 x_2_9 + 58 x_2_11 + 45 x_2_13
   + 84 x_2_14 + 80 x_2_15 + 27 x_2_19 + 102 x_3_4 + 41 x_3_6 + 47 x_3_7
   + 65 x_3_8 + 60 x_3_9 + 98 x_3_10 + 90 x_3_11 + 69 x_3_12 + 61 x_3_15
   + 105 x_3_16 + 68 x_3_17 + 21 x_3_18 + 88 x_3_19 + 101 x_4_5 + 73 x_4_6
   + 82 x_4_7 + 77 x_4_9 + 68 x_4_12 + 94 x_4_14 + 17 x_4_16 + 49 x_5_7
   + 67 x_5_8 + 63 x_5_9 + 97 x_5_10 + 88 x_5_11 + 71 x_5_12 + 67 x_5_13
   + 65 x_5_17 + 88 x_5_19 + 60 x_6_7 + 68 x_6_10 + 51 x_6_11 + 71 x_6_12
   + 72 x_6_13 + 21 x_6_14 + 24 x_6_15 + 32 x_6_17 + 54 x_6_18 + 58 x_6_19
   + 21 x_7_8 + 14 x_7_9 + 80 x_7_10 + 25 x_7_12 + 67 x_7_14 + 84 x_7_15
   + 77 x_7_16 + 92 x_7_17 + 30 x_7_18 + 72 x_7_19 + 8 x_8_9 + 86 x_8_11
   + 4 x_8_12 + 6 x_8_13 + 80 x_8_14 + 98 x_8_17 + 51 x_8_18 + 62 x_8_19
   + 76 x_9_10 + 92 x_9_11 + 12 x_9_12 + 4 x_9_13 + 79 x_9_14 + 70 x_9_16
   + 45 x_9_18 + 69 x_9_19 + 35 x_10_11 + 68 x_10_12 + 75 x_10_13
   + 89 x_10_14 + 73 x_10_15 + 21 x_10_16 + 88 x_11_5 + 87 x_11_12
   + 92 x_11_13 + 45 x_11_15 + 98 x_11_18 + 33 x_11_19 + 9 x_12_13
   + 84 x_12_14 + 100 x_12_17 + 55 x_12_18 + 61 x_12_19 + 82 x_13_14
   + 94 x_13_15 + 67 x_13_16 + 32 x_14_15 + 51 x_14_18 + 79 x_14_19
   + 90 x_15_16 + 8 x_15_17 + 77 x_15_18 + 65 x_15_19 + 94 x_16_17
   + 101 x_16_18 + 25 x_16_19 + 69 x_17_19 + 89 x_18_19 + 516 Constant
Subject To
 c_0: y_18 = 1
 c_1_0: y_0 + y_14 >= 1
 c_1_1: y_1 + y_8 + y_12 >= 1
 c_1_2: y_2 >= 1
 c_1_3: y_3 + y_5 >= 1
 c_1_4: y_4 + y_10 >= 1
 c_1_5: y_3 + y_5 >= 1
 c_1_6: y_6 >= 1
 c_1_7: y_7 >= 1
 c_1_8: y_1 + y_8 + y_9 + y_12 + y_13 >= 1
 c_1_9: y_8 + y_9 + y_13 >= 1
 c_1_10: y_4 + y_10 + y_19 >= 1
 c_1_11: y_11 >= 1
 c_1_12: y_1 + y_8 + y_12 + y_13 >= 1
 c_1_13: y_8 + y_9 + y_12 + y_13 >= 1
 c_1_14: y_0 + y_14 >= 1
 c_1_15: y_15 + y_17 >= 1
 c_1_16: y_16 >= 1
 c_1_17: y_15 + y_17 >= 1
 c_1_18: y_18 >= 1
 c_1_19: y_10 + y_19 >= 1
 c_2_0: - 2 y_0 + x_0_2 + x_0_4 + x_0_5 + x_0_6 + x_0_7 + x_0_8 + x_0_9
   + x_0_10 + x_0_11 + x_0_12 + x_0_13 + x_0_14 + x_0_15 + x_0_17 + x_0_18
   = 0
 c_2_1: - 2 y_1 + x_1_3 + x_1_4 + x_1_6 + x_1_7 + x_1_9 + x_1_10 + x_1_11
   + x_1_12 + x_1_14 + x_1_15 + x_1_17 + x_1_18 + x_1_19 = 0
 c_2_2: - 2 y_2 + x_0_2 + x_2_4 + x_2_7 + x_2_9 + x_2_11 + x_2_13 + x_2_14
   + x_2_15 + x_2_19 = 0
 c_2_3: - 2 y_3 + x_1_3 + x_3_4 + x_3_6 + x_3_7 + x_3_8 + x_3_9 + x_3_10
   + x_3_11 + x_3_12 + x_3_15 + x_3_16 + x_3_17 + x_3_18 + x_3_19 = 0
 c_2_4: - 2 y_4 + x_0_4 + x_1_4 + x_2_4 + x_3_4 + x_4_5 + x_4_6 + x_4_7
   + x_4_9 + x_4_12 + x_4_14 + x_4_16 = 0
 c_2_5: - 2 y_5 + x_0_5 + x_4_5 + x_5_7 + x_5_8 + x_5_9 + x_5_10 + x_5_12
   + x_5_13 + x_5_17 + x_5_19 + 2 x_11_5 = 0
 c_2_6: - 2 y_6 + x_0_6 + x_1_6 + x_3_6 + x_4_6 + x_6_7 + x_6_10 + x_6_11
   + x_6_12 + x_6_13 + x_6_14 + x_6_15 + x_6_17 + x_6_18 + x_6_19 = 0
 c_2_7: - 2 y_7 + x_0_7 + x_1_7 + x_2_7 + x_3_7 + x_4_7 + x_5_7 + x_6_7
   + x_7_8 + x_7_9 + x_7_10 + x_7_12 + x_7_14 + x_7_15 + x_7_16 + x_7_17
   + x_7_18 + x_7_19 = 0
 c_2_8: - 2 y_8 + x_0_8 + x_3_8 + x_5_8 + x_7_8 + x_8_9 + x_8_11 + x_8_12
   + x_8_13 + x_8_14 + x_8_17 + x_8_18 + x_8_19 = 0
 c_2_9: - 2 y_9 + x_0_9 + x_1_9 + x_2_9 + x_3_9 + x_4_9 + x_5_9 + x_7_9
   + x_8_9 + x_9_10 + x_9_11 + x_9_12 + x_9_13 + x_9_14 + x_9_16 + x_9_18
   + x_9_19 = 0
 c_2_10: - 2 y_10 + x_0_10 + x_1_10 + x_3_10 + x_5_10 + x_6_10 + x_7_10
   + x_9_10 + x_10_11 + x_10_12 + x_10_13 + x_10_14 + x_10_15 + x_10_16
   = 0
 c_2_11: - 2 y_11 + x_0_11 + x_1_11 + x_2_11 + x_3_11 + x_6_11 + x_8_11
   + x_9_11 + x_10_11 + 2 x_11_5 + x_11_12 + x_11_13 + x_11_15 + x_11_18
   + x_11_19 = 0
 c_2_12: - 2 y_12 + x_0_12 + x_1_12 + x_3_12 + x_4_12 + x_5_12 + x_6_12
   + x_7_12 + x_8_12 + x_9_12 + x_10_12 + x_11_12 + x_12_13 + x_12_14
   + x_12_17 + x_12_18 + x_12_19 = 0
 c_2_13: - 2 y_13 + x_0_13 + x_2_13 + x_5_13 + x_6_13 + x_8_13 + x_9_13
   + x_10_13 + x_11_13 + x_12_13 + x_13_14 + x_13_15 + x_13_16 = 0
 c_2_14: - 2 y_14 + x_0_14 + x_1_14 + x_2_14 + x_4_14 + x_6_14 + x_7_14
   + x_8_14 + x_9_14 + x_10_14 + x_12_14 + x_13_14 + x_14_15 + x_14_18
   + x_14_19 = 0
 c_2_15: - 2 y_15 + x_0_15 + x_1_15 + x_2_15 + x_3_15 + x_6_15 + x_7_15
   + x_10_15 + x_11_15 + x_13_15 + x_14_15 + x_15_16 + x_15_17 + x_15_18
   + x_15_19 = 0
 c_2_16: - 2 y_16 + x_3_16 + x_4_16 + x_7_16 + x_9_16 + x_10_16 + x_13_16
   + x_15_16 + x_16_17 + x_16_18 + x_16_19 = 0
 c_2_17: - 2 y_17 + x_0_17 + x_1_17 + x_3_17 + x_5_17 + x_6_17 + x_7_17
   + x_8_17 + x_12_17 + x_15_17 + x_16_17 + x_17_19 = 0
 c_2_18: - 2 y_18 + x_0_18 + x_1_18 + x_3_18 + x_6_18 + x_7_18 + x_8_18
   + x_9_18 + x_11_18 + x_12_18 + x_14_18 + x_15_18 + x_16_18 + x_18_19
   = 0
 c_2_19: - 2 y_19 + x_1_19 + x_2_19 + x_3_19 + x_5_19 + x_6_19 + x_7_19
   + x_8_19 + x_9_19 + x_11_19 + x_12_19 + x_14_19 + x_15_19 + x_16_19
   + x_17_19 + x_18_19 = 0
Bounds
 Constant = 1
Binaries
 y_0 y_1 y_2 y_3 y_4 y_5 y_6 y_7 y_8 y_9 y_10 y_11 y_12 y_13 y_14 y_15 y_16
 y_17 y_18 y_19 x_0_2 x_0_4 x_0_5 x_0_6 x_0_7 x_0_8 x_0_9 x_0_10 x_0_11
 x_0_12 x_0_13 x_0_14 x_0_15 x_0_17 x_0_18 x_1_3 x_1_4 x_1_6 x_1_7 x_1_9
 x_1_10 x_1_11 x_1_12 x_1_14 x_1_15 x_1_17 x_1_18 x_1_19 x_2_4 x_2_7 x_2_9
 x_2_11 x_2_13 x_2_14 x_2_15 x_2_19 x_3_4 x_3_6 x_3_7 x_3_8 x_3_9 x_3_10
 x_3_11 x_3_12 x_3_15 x_3_16 x_3_17 x_3_18 x_3_19 x_4_5 x_4_6 x_4_7 x_4_9
 x_4_12 x_4_14 x_4_16 x_5_7 x_5_8 x_5_9 x_5_10 x_5_11 x_5_12 x_5_13 x_5_17
 x_5_19 x_6_7 x_6_10 x_6_11 x_6_12 x_6_13 x_6_14 x_6_15 x_6_17 x_6_18
 x_6_19 x_7_8 x_7_9 x_7_10 x_7_12 x_7_14 x_7_15 x_7_16 x_7_17 x_7_18 x_7_19
 x_8_9 x_8_11 x_8_12 x_8_13 x_8_14 x_8_17 x_8_18 x_8_19 x_9_10 x_9_11
 x_9_12 x_9_13 x_9_14 x_9_16 x_9_18 x_9_19 x_10_11 x_10_12 x_10_13 x_10_14
 x_10_15 x_10_16 x_11_5 x_11_12 x_11_13 x_11_15 x_11_18 x_11_19 x_12_13
 x_12_14 x_12_17 x_12_18 x_12_19 x_13_14 x_13_15 x_13_16 x_14_15 x_14_18
 x_14_19 x_15_16 x_15_17 x_15_18 x_15_19 x_16_17 x_16_18 x_16_19 x_17_19
 x_18_19
End
